NAME : OMNETRUN
COMMENT : 524.61
TYPE : CVRP
DIMENSION : 21
EDGE_WEIGHT_TYPE : EUC_2D
CAPACITY : 21
NODE_COORD_SECTION
1 0.107093 -0.77924
2 182.298 -193.375
3 115.238 -676.698
4 135.723 -1212.38
5 205.506 -1892.21
6 118.507 -2247.86
7 153.77 -2750.76
8 162.131 -3202.73
9 56.6885 -3678.25
10 496.092 -3534.36
11 317.196 -3949.41
12 323.569 -4320.78
13 303.584 -4969.39
14 275.073 -5646.62
15 553.244 -545.155
16 578.79 -1144.57
17 509.948 -1690.45
18 675.168 -2060.75
19 644.122 -2977.86
20 590.258 -4557.13
21 598.862 -5172.22
DEMAND_SECTION
1 0
2 1
3 1
4 1
5 1
6 1
7 1
8 1
9 1
10 1
11 1
12 1
13 1
14 1
15 1
16 1
17 1
18 1
19 1
20 1
21 1
DEPOT_SECTION
1
-1
EOF
